107 300 4 42 44 83 35 45 23 35 49 67 75 98 20 9 34 95 26 19 95 77 98 54 29 75 84 75 83 63 52 85 69 55 26 13 37 60 9 59 94 58 77 20 7 48 28 40 42 53 58 36 81 7 41 9 82 77 36 16 39 87 100 7 41 25 71 29 84 80 40 29 89 16 48 95 64 27 86 5 79 95 93 11 54 33 20 87 9 7 2 47 93 1 6 85 77 28 65 60 59 4 40 47 20 87 93 83 13 